(declare-fun X0 () Int)
(declare-fun X1 () Int)
(declare-fun X2 () Int)
(declare-fun X3 () Int)
(declare-fun X4 () Int)
(assert (<= (- X1 X0) 1))
(assert (>= (- X1 X0) 0))
(assert (<= (- X2 X0) 2))
(assert (>= (- X2 X0) 1))
(assert (<= (- X3 X0) 4))
(assert (>= (- X3 X0) 2))
(assert (<= (- X4 X0) 5))
(assert (>= (- X4 X0) 4))
(check-sat)
